proyfinal/src/viki/013/experimentInOfficeAgust.take6.output/f8810d10-f9d6-4113-8335-8f1b4462987d.als.out
Reading from standard input... Use '--help' for help.
============================[ Problem Statistics ]=============================
|                                                                             |
|  Number of variables:         87638                                         |
|  Number of clauses:          161767                                         |
|  Parse time:                   0.04 s                                       |
|                                                                             |
============================[ Search Statistics ]==============================
| Conflicts |          ORIGINAL         |          LEARNT          | Progress |
|           |    Vars  Clauses Literals |    Limit  Clauses Lit/Cl |          |
===============================================================================
|       100 |   62043   103953   259768 |    38116      100     24 | 29.205 % |
|       250 |   62043   103953   259768 |    41927      250     56 | 29.205 % |
|       475 |   62023   103869   259575 |    46120      464     57 | 29.228 % |
|       812 |   62023   103869   259575 |    50732      801     74 | 29.228 % |
|      1318 |   62023   103869   259575 |    55805     1307     79 | 29.228 % |
|      2077 |   62023   103869   259575 |    61386     2066     80 | 29.228 % |
|      3216 |   62003   103749   259304 |    67524     3199     79 | 29.251 % |
|      4924 |   49162    66783   168221 |    74277     4843     68 | 43.903 % |
|      7486 |   49094    66536   167629 |    81705     7401     59 | 43.981 % |
|     11330 |   47993    65033   164107 |    89875    10041     53 | 45.237 % |
===============================================================================
restarts              : 48
conflicts             : 11372          (8457 /sec)
decisions             : 35335          (0.00 % random) (26276 /sec)
propagations          : 15501448       (11527357 /sec)
conflict literals     : 591595         (44.26 % deleted)
Memory used           : 27.02 MB
CPU time              : 1.34475 s

UNSATISFIABLE
